26684.0
372, 521, 781, 830, 918, 1054, 1089, 1143, 1338, 1397, 1423, 1438, 1447, 1654, 2074, 2096, 2133, 2154, 2208, 2499, 2575, 2740, 2798, 2851, 2861, 2893, 2927, 3003, 3215, 3266, 3306, 3332, 3484, 3636, 3786, 3905, 3944, 4019, 4145, 4195, 4200, 4314, 4380, 4396, 4407, 4479, 4486, 4852